resources/output2_4.lp
\Problem name: ClpDefaultName

Minimize
obj: 2.100000000 x0 + 1000 x1 + 2.200000000 x2 + 1000 x3 + 2.300000000 x4 + 1000 x5 + 1.100000000 x6 + 1.200000000 x7 + 1.300000000 x8 + 1000 x10
 + 1000 x12 + 1000 x14
Subject To
cons0:  x0 + x1 <= 21.100000000
cons1:  x2 + x3 <= 22.200000000
cons2:  x4 + x5 <= 23.300000000
cons3:  x6 <= 11.100000000
cons4:  -1.100000000 x1 + x7 <= 0
cons5:  x8 <= 12.200000000
cons6:  -1.100000000 x3 + x9 <= 0
cons7:  x10 <= 13.300000000
cons8:  -1.100000000 x5 + x11 <= 0
cons9:  - x1 + x12 <= 0
cons10:  - x3 + x13 <= 0
cons11:  - x5 + x14 <= 0
cons12:  - x1 + x14 <= 0
cons13:  - x3 + x14 <= 0
cons14:  - x5 + x14 <= 0
Bounds
 0 <= x0 <= 21.100000000
 0 <= x2 <= 22.200000000
 0 <= x4 <= 23.300000000
 0 <= x6 <= 11.100000000
 0 <= x7 <= 12.200000000
 0 <= x8 <= 13.300000000
End
