rust/resources/mps/output2_4.mps
NAME        output2_4
ROWS
 N  obj
 L  cons0
 L  cons1
 L  cons2
 L  cons3
 L  cons4
 L  cons5
 L  cons6
 L  cons7
 L  cons8
 L  cons9
 L  cons10
 L  cons11
 L  cons12
 L  cons13
 L  cons14
COLUMNS
    x0        obj       2.1
    x0        cons0     1
    x1        obj       1000
    x1        cons0     1
    x1        cons4     -1.1
    x1        cons9     -1
    x1        cons12    -1
    x2        obj       2.2
    x2        cons1     1
    x3        obj       1000
    x3        cons1     1
    x3        cons6     -1.1
    x3        cons10    -1
    x3        cons13    -1
    x4        obj       2.3
    x4        cons2     1
    x5        obj       1000
    x5        cons2     1
    x5        cons8     -1.1
    x5        cons11    -1
    x5        cons14    -1
    x6        obj       1.1
    x6        cons3     1
    x7        obj       1.2
    x7        cons4     1
    x8        obj       1.3
    x8        cons5     1
    x10       obj       1000
    x10       cons7     1
    x12       obj       1000
    x12       cons9     1
    x14       obj       1000
    x14       cons11    1
    x14       cons12    1
    x14       cons13    1
    x14       cons14    1
    x9        cons6     1
    x11       cons8     1
    x13       cons10    1
RHS
    RHS_V     cons0     21.1
    RHS_V     cons1     22.2
    RHS_V     cons2     23.3
    RHS_V     cons3     11.1
    RHS_V     cons5     12.2
    RHS_V     cons7     13.3
BOUNDS
 UP BOUND     x0        21.1
 UP BOUND     x2        22.2
 UP BOUND     x4        23.3
 UP BOUND     x6        11.1
 UP BOUND     x7        12.2
 UP BOUND     x8        13.3
ENDATA
